c 
c U(n,d) graph
c graph gen seed     : 80102
c number of vertices : 50
c max number of edges: 1225
c Euclidean distance : 0.200000
c data structure     : sparse
c
c           Graph Stats
c number of vertices  : 50
c nonisolated vertices: 50
c number of edges     : 119
c edge density        : 0.097143
c max degree          : 8
c avg degree          : 4.76
c min degree          : 1
p col 50 119
e 1 49
e 1 47
e 1 43
e 1 40
e 1 15
e 1 13
e 1 4
e 2 46
e 2 45
e 2 36
e 2 32
e 2 28
e 2 21
e 3 48
e 3 42
e 3 27
e 3 26
e 3 18
e 3 16
e 4 49
e 4 47
e 4 40
e 4 34
e 4 15
e 4 13
e 5 50
e 5 33
e 5 30
e 5 15
e 5 11
e 6 37
e 6 31
e 6 29
e 6 14
e 7 39
e 7 31
e 7 25
e 7 24
e 7 12
e 8 33
e 8 10
e 9 41
e 9 36
e 9 20
e 9 19
e 10 33
e 11 50
e 11 38
e 11 30
e 12 39
e 12 31
e 12 24
e 13 49
e 13 47
e 13 43
e 13 40
e 13 34
e 13 15
e 14 25
e 15 47
e 15 43
e 15 40
e 15 33
e 16 50
e 16 48
e 16 44
e 16 42
e 16 30
e 16 27
e 16 26
e 17 38
e 17 29
e 17 21
e 18 42
e 18 27
e 18 26
e 19 41
e 19 36
e 19 20
e 20 41
e 20 36
e 21 46
e 21 45
e 21 32
e 21 29
e 21 28
e 22 35
e 22 34
e 23 48
e 24 39
e 24 31
e 25 39
e 25 31
e 26 48
e 26 42
e 26 27
e 27 42
e 28 46
e 28 32
e 29 46
e 29 37
e 30 50
e 30 44
e 31 39
e 31 37
e 32 46
e 32 45
e 32 36
e 33 47
e 34 49
e 35 45
e 35 41
e 35 36
e 40 49
e 40 47
e 40 43
e 43 49
e 43 47
e 44 50
